CUSTOMERS : 10
VEHICLES : 1
0 184 184 196 154 117 175 99 217 256 70 
184 0 338 311 327 190 137 161 366 439 183 
184 338 0 325 60 158 250 181 33 165 156 
196 311 325 0 269 313 361 294 355 287 265 
154 327 60 269 0 169 262 183 87 128 149 
117 190 158 313 169 0 94 32 182 296 48 
175 137 250 361 262 94 0 84 270 389 122 
99 161 181 294 183 32 84 0 207 307 38 
217 366 33 355 87 182 270 207 0 171 184 
256 439 165 287 128 296 389 307 171 0 272 
70 183 156 265 149 48 122 38 184 272 0 
